# Solution for model micodag
# Objective value = 2.0114265427858019e+01
s_0_1 0
s_1_0 0
s_0_2 0
s_2_0 3.5185772281764072e-01
s_1_2 0
s_2_1 2.9374232536964140e-01
s_1_3 0
s_3_1 2.5740388549941695e-01
s_1_9 0
s_9_1 0
s_1_12 0
s_12_1 7.7118001874692643e-01
s_1_13 0
s_13_1 1.8220355959713652e-01
s_2_3 0
s_3_2 2.3392969208673708e-01
s_2_4 0
s_4_2 3.2818695352209115e-01
s_2_6 0
s_6_2 0
s_2_8 0
s_8_2 2.1240927114032671e-01
s_3_4 0
s_4_3 6.0077242266028330e-01
s_3_6 0
s_6_3 0
s_3_7 0
s_7_3 0
s_3_8 0
s_8_3 3.6066784689815945e-01
s_3_9 0
s_9_3 3.5480053819915058e-01
s_3_12 0
s_12_3 0
s_3_13 0
s_13_3 4.3673477329890442e-01
s_4_5 0
s_5_4 0
s_4_6 0
s_6_4 3.6797167103115314e-01
s_4_7 0
s_7_4 0
s_4_8 0
s_8_4 0
s_4_11 0
s_11_4 4.1106233059507735e-01
s_5_6 0
s_6_5 6.2702470364723650e-01
s_5_7 0
s_7_5 0.593256501860822
s_5_14 0
s_14_5 3.2202879693758835e-01
s_6_8 0
s_8_6 3.8042134725520960e-01
s_7_8 0
s_8_7 0
s_7_9 0
s_9_7 3.2529674727202642e+00
s_7_10 0
s_10_7 3.2529674727202642e+00
s_7_11 0
s_11_7 3.2529674727202642e+00
s_8_11 0
s_11_8 2.5151159310441029e-01
s_9_12 0
s_12_9 3.0731773690001996e-01
s_12_13 0
s_13_12 3.0208275953018315e-01
s_0_0 0.947682434825138
s_1_1 0.643316968752865
s_2_2 6.6435380703194635e-01
s_3_3 6.9818458896202706e-01
s_4_4 1.0090669700100916e+00
s_5_5 7.0035200515417007e-01
s_6_6 9.2605579143088290e-01
s_7_7 3.2529674727202642e+00
s_8_8 5.8496354911011617e-01
s_9_9 1.0532737785563961e+00
s_10_10 6.8025436982359144e-01
s_11_11 6.0217475680746269e-01
s_12_12 9.3062148737447936e-01
s_13_13 7.3041851399994151e-01
s_14_14 9.1733829411331547e-01
Gamma_0_0 9.7348982266130457e-01
Gamma_0_1 0
Gamma_0_2 0
Gamma_0_3 0
Gamma_0_4 0
Gamma_0_5 0
Gamma_0_6 0
Gamma_0_7 0
Gamma_0_8 0
Gamma_0_9 0
Gamma_0_10 0
Gamma_0_11 0
Gamma_0_12 0
Gamma_0_13 0
Gamma_0_14 0
Gamma_1_0 0
Gamma_1_1 8.0207042630486336e-01
Gamma_1_2 0
Gamma_1_3 0
Gamma_1_4 0
Gamma_1_5 0
Gamma_1_6 0
Gamma_1_7 0
Gamma_1_8 0
Gamma_1_9 0
Gamma_1_10 0
Gamma_1_11 0
Gamma_1_12 0
Gamma_1_13 0
Gamma_1_14 0
Gamma_2_0 -5.9317596277802875e-01
Gamma_2_1 -5.4198000458470974e-01
Gamma_2_2 8.1507901888832035e-01
Gamma_2_3 0
Gamma_2_4 0
Gamma_2_5 0
Gamma_2_6 0
Gamma_2_7 0
Gamma_2_8 0
Gamma_2_9 0
Gamma_2_10 0
Gamma_2_11 0
Gamma_2_12 0
Gamma_2_13 0
Gamma_2_14 0
Gamma_3_0 0
Gamma_3_1 5.0734986498413259e-01
Gamma_3_2 4.8366278757698339e-01
Gamma_3_3 8.3557440659825566e-01
Gamma_3_4 0
Gamma_3_5 0
Gamma_3_6 0
Gamma_3_7 0
Gamma_3_8 0
Gamma_3_9 0
Gamma_3_10 0
Gamma_3_11 0
Gamma_3_12 0
Gamma_3_13 0
Gamma_3_14 0
Gamma_4_0 0
Gamma_4_1 0
Gamma_4_2 0.572876036784653
Gamma_4_3 7.7509510555820393e-01
Gamma_4_4 1.0045232550867562e+00
Gamma_4_5 0
Gamma_4_6 0
Gamma_4_7 0
Gamma_4_8 0
Gamma_4_9 0
Gamma_4_10 0
Gamma_4_11 0
Gamma_4_12 0
Gamma_4_13 0
Gamma_4_14 0
Gamma_5_0 0
Gamma_5_1 0
Gamma_5_2 0
Gamma_5_3 0
Gamma_5_4 0
Gamma_5_5 8.3687036341011067e-01
Gamma_5_6 0
Gamma_5_7 0
Gamma_5_8 0
Gamma_5_9 0
Gamma_5_10 0
Gamma_5_11 0
Gamma_5_12 0
Gamma_5_13 0
Gamma_5_14 0
Gamma_6_0 0
Gamma_6_1 0
Gamma_6_2 0
Gamma_6_3 0
Gamma_6_4 -6.0660668561363007e-01
Gamma_6_5 7.9184891465937923e-01
Gamma_6_6 9.6231792637926239e-01
Gamma_6_7 0
Gamma_6_8 0
Gamma_6_9 0
Gamma_6_10 0
Gamma_6_11 0
Gamma_6_12 0
Gamma_6_13 0
Gamma_6_14 0
Gamma_7_0 0
Gamma_7_1 0
Gamma_7_2 0
Gamma_7_3 0
Gamma_7_4 0
Gamma_7_5 -7.7023145992670450e-01
Gamma_7_6 0
Gamma_7_7 9.9020931515223742e-01
Gamma_7_8 0
Gamma_7_9 0
Gamma_7_10 0
Gamma_7_11 0
Gamma_7_12 0
Gamma_7_13 0
Gamma_7_14 0
Gamma_8_0 0
Gamma_8_1 0
Gamma_8_2 4.6087880309288232e-01
Gamma_8_3 6.0055628120781490e-01
Gamma_8_4 0
Gamma_8_5 0
Gamma_8_6 -6.1678306336605093e-01
Gamma_8_7 0
Gamma_8_8 7.6482909797556520e-01
Gamma_8_9 0
Gamma_8_10 0
Gamma_8_11 0
Gamma_8_12 0
Gamma_8_13 0
Gamma_8_14 0
Gamma_9_0 0
Gamma_9_1 0
Gamma_9_2 0
Gamma_9_3 5.9565135624721854e-01
Gamma_9_4 0
Gamma_9_5 0
Gamma_9_6 0
Gamma_9_7 -0.581890249995602
Gamma_9_8 0
Gamma_9_9 1.0262912737407430e+00
Gamma_9_10 0
Gamma_9_11 0
Gamma_9_12 0
Gamma_9_13 0
Gamma_9_14 0
Gamma_10_0 0
Gamma_10_1 0
Gamma_10_2 0
Gamma_10_3 0
Gamma_10_4 0
Gamma_10_5 0
Gamma_10_6 0
Gamma_10_7 4.6168873905134250e-01
Gamma_10_8 0
Gamma_10_9 0
Gamma_10_10 8.2477534506287942e-01
Gamma_10_11 0
Gamma_10_12 0
Gamma_10_13 0
Gamma_10_14 0
Gamma_11_0 0
Gamma_11_1 0
Gamma_11_2 0
Gamma_11_3 0
Gamma_11_4 -6.4114142791982931e-01
Gamma_11_5 0
Gamma_11_6 0
Gamma_11_7 6.4661254869218887e-01
Gamma_11_8 5.0150931507242347e-01
Gamma_11_9 0
Gamma_11_10 0
Gamma_11_11 7.7599919897346759e-01
Gamma_11_12 0
Gamma_11_13 0
Gamma_11_14 0
Gamma_12_0 0
Gamma_12_1 -8.7816855941608785e-01
Gamma_12_2 0
Gamma_12_3 0
Gamma_12_4 0
Gamma_12_5 0
Gamma_12_6 0
Gamma_12_7 0
Gamma_12_8 0
Gamma_12_9 -5.5436245985818744e-01
Gamma_12_10 0
Gamma_12_11 0
Gamma_12_12 9.6468724847718390e-01
Gamma_12_13 0
Gamma_12_14 0
Gamma_13_0 0
Gamma_13_1 4.2685308900971725e-01
Gamma_13_2 0
Gamma_13_3 6.6085911758778437e-01
Gamma_13_4 0
Gamma_13_5 0
Gamma_13_6 0
Gamma_13_7 0
Gamma_13_8 0
Gamma_13_9 0
Gamma_13_10 0
Gamma_13_11 0
Gamma_13_12 5.4962055959560241e-01
Gamma_13_13 8.5464525623204746e-01
Gamma_13_14 0
Gamma_14_0 0
Gamma_14_1 0
Gamma_14_2 0
Gamma_14_3 0
Gamma_14_4 0
Gamma_14_5 5.6747581176433270e-01
Gamma_14_6 0
Gamma_14_7 0
Gamma_14_8 0
Gamma_14_9 0
Gamma_14_10 0
Gamma_14_11 0
Gamma_14_12 0
Gamma_14_13 0
Gamma_14_14 9.5777778952809089e-01
psi_0 6
psi_1 6
psi_2 5
psi_3 4
psi_4 3
psi_5 4
psi_6 2
psi_7 3
psi_8 1
psi_9 2
psi_10 0
psi_11 0
psi_12 1
psi_13 0
psi_14 0
g_0_0 0
g_0_1 0
g_0_2 0
g_0_3 0
g_0_4 0
g_0_5 0
g_0_6 0
g_0_7 0
g_0_8 0
g_0_9 0
g_0_10 0
g_0_11 0
g_0_12 0
g_0_13 0
g_0_14 0
g_1_0 0
g_1_1 0
g_1_2 0
g_1_3 0
g_1_4 0
g_1_5 0
g_1_6 0
g_1_7 0
g_1_8 0
g_1_9 0
g_1_10 0
g_1_11 0
g_1_12 0
g_1_13 0
g_1_14 0
g_2_0 1
g_2_1 1
g_2_2 0
g_2_3 0
g_2_4 0
g_2_5 0
g_2_6 0
g_2_7 0
g_2_8 0
g_2_9 0
g_2_10 0
g_2_11 0
g_2_12 0
g_2_13 0
g_2_14 0
g_3_0 0
g_3_1 1
g_3_2 1
g_3_3 0
g_3_4 0
g_3_5 0
g_3_6 0
g_3_7 0
g_3_8 0
g_3_9 0
g_3_10 0
g_3_11 0
g_3_12 0
g_3_13 0
g_3_14 0
g_4_0 0
g_4_1 0
g_4_2 1
g_4_3 1
g_4_4 0
g_4_5 0
g_4_6 0
g_4_7 0
g_4_8 0
g_4_9 0
g_4_10 0
g_4_11 0
g_4_12 0
g_4_13 0
g_4_14 0
g_5_0 0
g_5_1 0
g_5_2 0
g_5_3 0
g_5_4 0
g_5_5 0
g_5_6 0
g_5_7 0
g_5_8 0
g_5_9 0
g_5_10 0
g_5_11 0
g_5_12 0
g_5_13 0
g_5_14 0
g_6_0 0
g_6_1 0
g_6_2 0
g_6_3 0
g_6_4 1
g_6_5 1
g_6_6 0
g_6_7 0
g_6_8 0
g_6_9 0
g_6_10 0
g_6_11 0
g_6_12 0
g_6_13 0
g_6_14 0
g_7_0 0
g_7_1 0
g_7_2 0
g_7_3 0
g_7_4 0
g_7_5 1
g_7_6 0
g_7_7 0
g_7_8 0
g_7_9 0
g_7_10 0
g_7_11 0
g_7_12 0
g_7_13 0
g_7_14 0
g_8_0 0
g_8_1 0
g_8_2 1
g_8_3 1
g_8_4 0
g_8_5 0
g_8_6 1
g_8_7 0
g_8_8 0
g_8_9 0
g_8_10 0
g_8_11 0
g_8_12 0
g_8_13 0
g_8_14 0
g_9_0 0
g_9_1 0
g_9_2 0
g_9_3 1
g_9_4 0
g_9_5 0
g_9_6 0
g_9_7 1
g_9_8 0
g_9_9 0
g_9_10 0
g_9_11 0
g_9_12 0
g_9_13 0
g_9_14 0
g_10_0 0
g_10_1 0
g_10_2 0
g_10_3 0
g_10_4 0
g_10_5 0
g_10_6 0
g_10_7 1
g_10_8 0
g_10_9 0
g_10_10 0
g_10_11 0
g_10_12 0
g_10_13 0
g_10_14 0
g_11_0 0
g_11_1 0
g_11_2 0
g_11_3 0
g_11_4 1
g_11_5 0
g_11_6 0
g_11_7 1
g_11_8 1
g_11_9 0
g_11_10 0
g_11_11 0
g_11_12 0
g_11_13 0
g_11_14 0
g_12_0 0
g_12_1 1
g_12_2 0
g_12_3 0
g_12_4 0
g_12_5 0
g_12_6 0
g_12_7 0
g_12_8 0
g_12_9 1
g_12_10 0
g_12_11 0
g_12_12 0
g_12_13 0
g_12_14 0
g_13_0 0
g_13_1 1
g_13_2 0
g_13_3 1
g_13_4 0
g_13_5 0
g_13_6 0
g_13_7 0
g_13_8 0
g_13_9 0
g_13_10 0
g_13_11 0
g_13_12 1
g_13_13 0
g_13_14 0
g_14_0 0
g_14_1 0
g_14_2 0
g_14_3 0
g_14_4 0
g_14_5 1
g_14_6 0
g_14_7 0
g_14_8 0
g_14_9 0
g_14_10 0
g_14_11 0
g_14_12 0
g_14_13 0
g_14_14 0
T_0 -2.6867908604289129e-02
T_1 -2.2055886162327895e-01
T_2 -2.0447021474998298e-01
T_3 -1.7963587854063057e-01
T_4 0.00451305591254562
T_5 -1.7808610291337948e-01
T_6 -3.8410398112775704e-02
T_7 -0.00983892875485247
T_8 -0.268102871452528
T_9 2.5951598993554526e-02
T_10 -1.9264423874497957e-01
T_11 -2.5360379105013720e-01
T_12 -3.5951325015531131e-02
T_13 -1.5706880113402580e-01
T_14 -4.3139480392309373e-02
